p cnf 1 303
 8386139560104799612 7=: =,,<0*3 0
 8386139560104799612 ?4: ! <$4* 0
-8386139560104799612 8386139560104799612 2$/5232/-!=)1-? 0
 8386139560104799612 0
 8386139560104799612 2">:.944)1::0 0
-8386139560104799612 8386139560104799612 0
-8386139560104799612 8386139560104799612 0
 8386139560104799612 (%:>-7'&/& 0
 8386139560104799612 0
 8386139560104799612 5*>60*2 0
-8386139560104799612 8386139560104799612 *7;& 0
-8386139560104799612 8386139560104799612 1! *?/,<<<757835;" 0
-8386139560104799612 8386139560104799612 35(9 0
-8386139560104799612 8386139560104799612 0
 8386139560104799612 0
 8386139560104799612 *$*&'-381<( 0
-8386139560104799612 8386139560104799612 0
-8386139560104799612 8386139560104799612 %)2<6+$&**>1" 0
 8386139560104799612 9<(9:&=- 0
-8386139560104799612 8386139560104799612 0
-8386139560104799612 8386139560104799612 5;) &  0
 8386139560104799612 222*#(.!,"*$!! 0
 8386139560104799612 ( 0
 8386139560104799612 1,3>'>:/&)4?>$3$ 0
 8386139560104799612 0
 8386139560104799612 0
 8386139560104799612 >-'0 0
 8386139560104799612 0
 8386139560104799612 5?$;: 0
-8386139560104799612 8386139560104799612 0
 8386139560104799612 0
 8386139560104799612 0
 8386139560104799612 474#=. $8/- 0
 8386139560104799612 0
-8386139560104799612 8386139560104799612 92 0
-8386139560104799612 8386139560104799612 0
 8386139560104799612 0
-8386139560104799612 8386139560104799612 16.48)881,**1=,&<(), 0
 8386139560104799612 +62*+%+-"-> 0
 8386139560104799612 0
 8386139560104799612 0
 8386139560104799612 2!)88) :,>*88'. 0
 8386139560104799612 $4/'-"1$176/43,24 5- 0
-8386139560104799612 8386139560104799612 +:<-!%,?7+>$..83*-9 0
-8386139560104799612 8386139560104799612 ?:7'"/#- 0
-8386139560104799612 8386139560104799612 0
 8386139560104799612 0
 8386139560104799612 0
 8386139560104799612 < 0
-8386139560104799612 8386139560104799612 0
-8386139560104799612 8386139560104799612 8!2>(" 0
-8386139560104799612 8386139560104799612 >)9; 0
 8386139560104799612 829*1)!;1=',3<?+2 0
 8386139560104799612 0
-8386139560104799612 8386139560104799612 0
-8386139560104799612 8386139560104799612 0
 8386139560104799612 0
-8386139560104799612 8386139560104799612 /5)=51=921/*)9= 0
 8386139560104799612 0
 8386139560104799612 0
-8386139560104799612 8386139560104799612 %%5(9;>;#2/9!$+'3+=& 0
 8386139560104799612 );23).2 0
-8386139560104799612 8386139560104799612 0
 8386139560104799612 (. *0,<8+%9)7,194 0
-8386139560104799612 8386139560104799612 0
 8386139560104799612 &/)) 0
-8386139560104799612 8386139560104799612 0
 8386139560104799612 0
-8386139560104799612 8386139560104799612 )'2)8<)"=; 0
-8386139560104799612 8386139560104799612 9970;&!5">1 ='0( 0
-8386139560104799612 8386139560104799612 =9*1+83)95) 0
 8386139560104799612 .*=#4'?>/!>%/ 0
 8386139560104799612 0
-8386139560104799612 8386139560104799612 )#+?> ":// ?.0 0
 8386139560104799612 0
-8386139560104799612 8386139560104799612 0
-8386139560104799612 8386139560104799612 0
-8386139560104799612 8386139560104799612 )7#<+<>2>8? 0
-8386139560104799612 8386139560104799612 0
-8386139560104799612 8386139560104799612 0
 8386139560104799612 0
 8386139560104799612 0
 8386139560104799612 =415 0
 8386139560104799612 0
 8386139560104799612 0
 8386139560104799612 0
 8386139560104799612 ? 7= =&/-35 0
-8386139560104799612 8386139560104799612 0
 8386139560104799612 0
